(set-logic QF_BV)

(declare-const __ESBMC_ptr_obj_start_0 (_ BitVec 64))

(declare-const __ESBMC_ptr_obj_end_0 (_ BitVec 64))

(declare-const __ESBMC_ptr_obj_start_1 (_ BitVec 64))

(declare-const __ESBMC_ptr_obj_end_1 (_ BitVec 64))

(declare-const |smt_conv::__ESBMC_ptr_addr_range_0..start0| (_ BitVec 64))

(declare-const |smt_conv::__ESBMC_ptr_addr_range_0..end0| (_ BitVec 64))

(declare-const |smt_conv::__ESBMC_ptr_addr_range_1..start0| (_ BitVec 64))

(declare-const |smt_conv::__ESBMC_ptr_addr_range_1..end0| (_ BitVec 64))

(declare-const |smt_conv::smt_conv::collate_array_vals::3..start0| (_ BitVec 64))

(declare-const |smt_conv::smt_conv::collate_array_vals::3..end0| (_ BitVec 64))

(declare-const |smt_conv::smt_conv::collate_array_vals::4..start0| (_ BitVec 64))

(declare-const |smt_conv::smt_conv::collate_array_vals::4..end0| (_ BitVec 64))

(declare-const |smt_conv::smt_conv::collate_array_vals::7..start0| (_ BitVec 64))

(declare-const |smt_conv::smt_conv::collate_array_vals::7..end0| (_ BitVec 64))

(declare-const |c:ps3-both-t.c@617@F@main@k?1!0&0#1| (_ BitVec 32))

(declare-const |nondet$symex::nondet68| (_ BitVec 32))

(declare-const |goto_symex::guard?0!0&0#1| (_ BitVec 1))

(declare-const |goto_symex::guard?0!0&0#2| (_ BitVec 1))

(declare-const |goto_symex::guard?0!0&0#3| (_ BitVec 1))

(declare-const |goto_symex::guard?0!0&0#4| (_ BitVec 1))

(declare-const |goto_symex::guard?0!0&0#5| (_ BitVec 1))

(declare-const |goto_symex::guard?0!0&0#6| (_ BitVec 1))

(declare-const |goto_symex::guard?0!0&0#7| (_ BitVec 1))

(declare-const |goto_symex::guard?0!0&0#8| (_ BitVec 1))

(declare-const |goto_symex::guard?0!0&0#9| (_ BitVec 1))

(declare-const |goto_symex::guard?0!0&0#10| (_ BitVec 1))

(declare-const |goto_symex::guard?0!0&0#11| (_ BitVec 1))

(declare-const |goto_symex::guard?0!0&0#12| (_ BitVec 1))

(declare-const |goto_symex::guard?0!0&0#13| (_ BitVec 1))

(declare-const |goto_symex::guard?0!0&0#14| (_ BitVec 1))

(declare-const |goto_symex::guard?0!0&0#15| (_ BitVec 1))

(declare-const |goto_symex::guard?0!0&0#16| (_ BitVec 1))

(declare-const |goto_symex::guard?0!0&0#17| (_ BitVec 1))

(declare-const |goto_symex::guard?0!0&0#18| (_ BitVec 1))

(declare-const |goto_symex::guard?0!0&0#19| (_ BitVec 1))

(declare-const |goto_symex::guard?0!0&0#20| (_ BitVec 1))

(declare-const |goto_symex::guard?0!0&0#21| (_ BitVec 1))

(declare-const |goto_symex::guard?0!0&0#22| (_ BitVec 1))

(declare-const |goto_symex::guard?0!0&0#23| (_ BitVec 1))

(declare-const |goto_symex::guard?0!0&0#24| (_ BitVec 1))

(declare-const |goto_symex::guard?0!0&0#25| (_ BitVec 1))

(declare-const |goto_symex::guard?0!0&0#26| (_ BitVec 1))

(declare-const |goto_symex::guard?0!0&0#27| (_ BitVec 1))

(declare-const |goto_symex::guard?0!0&0#28| (_ BitVec 1))

(declare-const |goto_symex::guard?0!0&0#29| (_ BitVec 1))

(declare-const |goto_symex::guard?0!0&0#30| (_ BitVec 1))

(declare-const |goto_symex::guard?0!0&0#31| (_ BitVec 1))

(declare-const |goto_symex::guard?0!0&0#32| (_ BitVec 1))

(declare-const |goto_symex::guard?0!0&0#33| (_ BitVec 1))

(declare-const |goto_symex::guard?0!0&0#34| (_ BitVec 1))

(declare-const |goto_symex::guard?0!0&0#35| (_ BitVec 1))

(declare-const |goto_symex::guard?0!0&0#36| (_ BitVec 1))

(declare-const |goto_symex::guard?0!0&0#37| (_ BitVec 1))

(declare-const |goto_symex::guard?0!0&0#38| (_ BitVec 1))

(declare-const |goto_symex::guard?0!0&0#39| (_ BitVec 1))

(declare-const |goto_symex::guard?0!0&0#40| (_ BitVec 1))

(declare-const |goto_symex::guard?0!0&0#41| (_ BitVec 1))

(declare-const |goto_symex::guard?0!0&0#42| (_ BitVec 1))

(declare-const |goto_symex::guard?0!0&0#43| (_ BitVec 1))

(declare-const |goto_symex::guard?0!0&0#44| (_ BitVec 1))

(declare-const |goto_symex::guard?0!0&0#45| (_ BitVec 1))

(declare-const |goto_symex::guard?0!0&0#46| (_ BitVec 1))

(declare-const |goto_symex::guard?0!0&0#47| (_ BitVec 1))

(declare-const |goto_symex::guard?0!0&0#48| (_ BitVec 1))

(declare-const |goto_symex::guard?0!0&0#49| (_ BitVec 1))

(declare-const |goto_symex::guard?0!0&0#50| (_ BitVec 1))

(declare-const |goto_symex::guard?0!0&0#51| (_ BitVec 1))

(declare-const |goto_symex::guard?0!0&0#52| (_ BitVec 1))

(declare-const |goto_symex::guard?0!0&0#53| (_ BitVec 1))

(declare-const |goto_symex::guard?0!0&0#54| (_ BitVec 1))

(declare-const |goto_symex::guard?0!0&0#55| (_ BitVec 1))

(declare-const |goto_symex::guard?0!0&0#56| (_ BitVec 1))

(declare-const |goto_symex::guard?0!0&0#57| (_ BitVec 1))

(declare-const |goto_symex::guard?0!0&0#58| (_ BitVec 1))

(declare-const |goto_symex::guard?0!0&0#59| (_ BitVec 1))

(declare-const |goto_symex::guard?0!0&0#60| (_ BitVec 1))

(declare-const |goto_symex::guard?0!0&0#61| (_ BitVec 1))

(declare-const |goto_symex::guard?0!0&0#62| (_ BitVec 1))

(declare-const |goto_symex::guard?0!0&0#63| (_ BitVec 1))

(declare-const |goto_symex::guard?0!0&0#64| (_ BitVec 1))

(declare-const |goto_symex::guard?0!0&0#65| (_ BitVec 1))

(declare-const |goto_symex::guard?0!0&0#66| (_ BitVec 1))

(declare-const |goto_symex::guard?0!0&0#67| (_ BitVec 1))

(declare-const |goto_symex::guard?0!0&0#68| (_ BitVec 1))

(declare-const |goto_symex::guard?0!0&0#69| (_ BitVec 1))

(declare-const |execution_statet::guard_exec?0!0| (_ BitVec 1))

(assert 

 (= __ESBMC_ptr_obj_start_0 #b0000000000000000000000000000000000000000000000000000000000000000))

(assert 

 (= #b0000000000000000000000000000000000000000000000000000000000000000 __ESBMC_ptr_obj_end_0))

(assert 

 (= __ESBMC_ptr_obj_start_1 #b0000000000000000000000000000000000000000000000000000000000000001))

(assert 

 (= #b1111111111111111111111111111111111111111111111111111111111111111 __ESBMC_ptr_obj_end_1))

(assert 

 (= __ESBMC_ptr_obj_end_0 |smt_conv::__ESBMC_ptr_addr_range_0..end0|))

(assert 

 (= __ESBMC_ptr_obj_start_0 |smt_conv::__ESBMC_ptr_addr_range_0..start0|))

(assert 

 (= __ESBMC_ptr_obj_end_1 |smt_conv::__ESBMC_ptr_addr_range_1..end0|))

(assert 

 (= __ESBMC_ptr_obj_start_1 |smt_conv::__ESBMC_ptr_addr_range_1..start0|))

(assert 

 (= |smt_conv::smt_conv::collate_array_vals::3..end0| |smt_conv::smt_conv::collate_array_vals::4..end0|))

(assert 

 (= |smt_conv::smt_conv::collate_array_vals::3..start0| |smt_conv::smt_conv::collate_array_vals::4..start0|))

(assert 

 (= __ESBMC_ptr_obj_end_0 |smt_conv::smt_conv::collate_array_vals::7..end0|))

(assert 

 (= __ESBMC_ptr_obj_start_0 |smt_conv::smt_conv::collate_array_vals::7..start0|))

(assert 

 (= |c:ps3-both-t.c@617@F@main@k?1!0&0#1| |nondet$symex::nondet68|))

(assert 

 (= |goto_symex::guard?0!0&0#1| 

  (ite 

   (bvslt #b00000000000000000000000000000000 |c:ps3-both-t.c@617@F@main@k?1!0&0#1|) #b1 #b0)))

(assert 

 (= |goto_symex::guard?0!0&0#2| 

  (ite 

   (bvslt #b00000000000000000000000000000001 |c:ps3-both-t.c@617@F@main@k?1!0&0#1|) #b1 #b0)))

(assert 

 (= |goto_symex::guard?0!0&0#3| 

  (ite 

   (bvslt #b00000000000000000000000000000010 |c:ps3-both-t.c@617@F@main@k?1!0&0#1|) #b1 #b0)))

(assert 

 (= |goto_symex::guard?0!0&0#4| 

  (ite 

   (bvslt #b00000000000000000000000000000011 |c:ps3-both-t.c@617@F@main@k?1!0&0#1|) #b1 #b0)))

(assert 

 (= |goto_symex::guard?0!0&0#5| 

  (ite 

   (bvslt #b00000000000000000000000000000100 |c:ps3-both-t.c@617@F@main@k?1!0&0#1|) #b1 #b0)))

(assert 

 (= |goto_symex::guard?0!0&0#6| 

  (ite 

   (bvslt #b00000000000000000000000000000101 |c:ps3-both-t.c@617@F@main@k?1!0&0#1|) #b1 #b0)))

(assert 

 (= |goto_symex::guard?0!0&0#7| 

  (ite 

   (bvslt #b00000000000000000000000000000110 |c:ps3-both-t.c@617@F@main@k?1!0&0#1|) #b1 #b0)))

(assert 

 (= |goto_symex::guard?0!0&0#8| 

  (ite 

   (bvslt #b00000000000000000000000000000111 |c:ps3-both-t.c@617@F@main@k?1!0&0#1|) #b1 #b0)))

(assert 

 (= |goto_symex::guard?0!0&0#9| 

  (ite 

   (bvslt #b00000000000000000000000000001000 |c:ps3-both-t.c@617@F@main@k?1!0&0#1|) #b1 #b0)))

(assert 

 (= |goto_symex::guard?0!0&0#10| 

  (ite 

   (bvslt #b00000000000000000000000000001001 |c:ps3-both-t.c@617@F@main@k?1!0&0#1|) #b1 #b0)))

(assert 

 (= |goto_symex::guard?0!0&0#11| 

  (ite 

   (bvslt #b00000000000000000000000000001010 |c:ps3-both-t.c@617@F@main@k?1!0&0#1|) #b1 #b0)))

(assert 

 (= |goto_symex::guard?0!0&0#12| 

  (ite 

   (bvslt #b00000000000000000000000000001011 |c:ps3-both-t.c@617@F@main@k?1!0&0#1|) #b1 #b0)))

(assert 

 (= |goto_symex::guard?0!0&0#13| 

  (ite 

   (bvslt #b00000000000000000000000000001100 |c:ps3-both-t.c@617@F@main@k?1!0&0#1|) #b1 #b0)))

(assert 

 (= |goto_symex::guard?0!0&0#14| 

  (ite 

   (bvslt #b00000000000000000000000000001101 |c:ps3-both-t.c@617@F@main@k?1!0&0#1|) #b1 #b0)))

(assert 

 (= |goto_symex::guard?0!0&0#15| 

  (ite 

   (bvslt #b00000000000000000000000000001110 |c:ps3-both-t.c@617@F@main@k?1!0&0#1|) #b1 #b0)))

(assert 

 (= |goto_symex::guard?0!0&0#16| 

  (ite 

   (bvslt #b00000000000000000000000000001111 |c:ps3-both-t.c@617@F@main@k?1!0&0#1|) #b1 #b0)))

(assert 

 (= |goto_symex::guard?0!0&0#17| 

  (ite 

   (bvslt #b00000000000000000000000000010000 |c:ps3-both-t.c@617@F@main@k?1!0&0#1|) #b1 #b0)))

(assert 

 (= |goto_symex::guard?0!0&0#18| 

  (ite 

   (bvslt #b00000000000000000000000000010001 |c:ps3-both-t.c@617@F@main@k?1!0&0#1|) #b1 #b0)))

(assert 

 (= |goto_symex::guard?0!0&0#19| 

  (ite 

   (bvslt #b00000000000000000000000000010010 |c:ps3-both-t.c@617@F@main@k?1!0&0#1|) #b1 #b0)))

(assert 

 (= |goto_symex::guard?0!0&0#20| 

  (ite 

   (bvslt #b00000000000000000000000000010011 |c:ps3-both-t.c@617@F@main@k?1!0&0#1|) #b1 #b0)))

(assert 

 (= |goto_symex::guard?0!0&0#21| 

  (ite 

   (bvslt #b00000000000000000000000000010100 |c:ps3-both-t.c@617@F@main@k?1!0&0#1|) #b1 #b0)))

(assert 

 (= |goto_symex::guard?0!0&0#22| 

  (ite 

   (bvslt #b00000000000000000000000000010101 |c:ps3-both-t.c@617@F@main@k?1!0&0#1|) #b1 #b0)))

(assert 

 (= |goto_symex::guard?0!0&0#23| 

  (ite 

   (bvslt #b00000000000000000000000000010110 |c:ps3-both-t.c@617@F@main@k?1!0&0#1|) #b1 #b0)))

(assert 

 (= |goto_symex::guard?0!0&0#24| 

  (ite 

   (bvslt #b00000000000000000000000000010111 |c:ps3-both-t.c@617@F@main@k?1!0&0#1|) #b1 #b0)))

(assert 

 (= |goto_symex::guard?0!0&0#25| 

  (ite 

   (bvslt #b00000000000000000000000000011000 |c:ps3-both-t.c@617@F@main@k?1!0&0#1|) #b1 #b0)))

(assert 

 (= |goto_symex::guard?0!0&0#26| 

  (ite 

   (bvslt #b00000000000000000000000000011001 |c:ps3-both-t.c@617@F@main@k?1!0&0#1|) #b1 #b0)))

(assert 

 (= |goto_symex::guard?0!0&0#27| 

  (ite 

   (bvslt #b00000000000000000000000000011010 |c:ps3-both-t.c@617@F@main@k?1!0&0#1|) #b1 #b0)))

(assert 

 (= |goto_symex::guard?0!0&0#28| 

  (ite 

   (bvslt #b00000000000000000000000000011011 |c:ps3-both-t.c@617@F@main@k?1!0&0#1|) #b1 #b0)))

(assert 

 (= |goto_symex::guard?0!0&0#29| 

  (ite 

   (bvslt #b00000000000000000000000000011100 |c:ps3-both-t.c@617@F@main@k?1!0&0#1|) #b1 #b0)))

(assert 

 (= |goto_symex::guard?0!0&0#30| 

  (ite 

   (bvslt #b00000000000000000000000000011101 |c:ps3-both-t.c@617@F@main@k?1!0&0#1|) #b1 #b0)))

(assert 

 (= |goto_symex::guard?0!0&0#31| 

  (ite 

   (bvslt #b00000000000000000000000000011110 |c:ps3-both-t.c@617@F@main@k?1!0&0#1|) #b1 #b0)))

(assert 

 (= |goto_symex::guard?0!0&0#32| 

  (ite 

   (bvslt #b00000000000000000000000000011111 |c:ps3-both-t.c@617@F@main@k?1!0&0#1|) #b1 #b0)))

(assert 

 (= |goto_symex::guard?0!0&0#33| 

  (ite 

   (bvslt #b00000000000000000000000000100000 |c:ps3-both-t.c@617@F@main@k?1!0&0#1|) #b1 #b0)))

(assert 

 (= |goto_symex::guard?0!0&0#34| 

  (ite 

   (bvslt #b00000000000000000000000000100001 |c:ps3-both-t.c@617@F@main@k?1!0&0#1|) #b1 #b0)))

(assert 

 (= |goto_symex::guard?0!0&0#35| 

  (ite 

   (bvslt #b00000000000000000000000000100010 |c:ps3-both-t.c@617@F@main@k?1!0&0#1|) #b1 #b0)))

(assert 

 (= |goto_symex::guard?0!0&0#36| 

  (ite 

   (bvslt #b00000000000000000000000000100011 |c:ps3-both-t.c@617@F@main@k?1!0&0#1|) #b1 #b0)))

(assert 

 (= |goto_symex::guard?0!0&0#37| 

  (ite 

   (bvslt #b00000000000000000000000000100100 |c:ps3-both-t.c@617@F@main@k?1!0&0#1|) #b1 #b0)))

(assert 

 (= |goto_symex::guard?0!0&0#38| 

  (ite 

   (bvslt #b00000000000000000000000000100101 |c:ps3-both-t.c@617@F@main@k?1!0&0#1|) #b1 #b0)))

(assert 

 (= |goto_symex::guard?0!0&0#39| 

  (ite 

   (bvslt #b00000000000000000000000000100110 |c:ps3-both-t.c@617@F@main@k?1!0&0#1|) #b1 #b0)))

(assert 

 (= |goto_symex::guard?0!0&0#40| 

  (ite 

   (bvslt #b00000000000000000000000000100111 |c:ps3-both-t.c@617@F@main@k?1!0&0#1|) #b1 #b0)))

(assert 

 (= |goto_symex::guard?0!0&0#41| 

  (ite 

   (bvslt #b00000000000000000000000000101000 |c:ps3-both-t.c@617@F@main@k?1!0&0#1|) #b1 #b0)))

(assert 

 (= |goto_symex::guard?0!0&0#42| 

  (ite 

   (bvslt #b00000000000000000000000000101001 |c:ps3-both-t.c@617@F@main@k?1!0&0#1|) #b1 #b0)))

(assert 

 (= |goto_symex::guard?0!0&0#43| 

  (ite 

   (bvslt #b00000000000000000000000000101010 |c:ps3-both-t.c@617@F@main@k?1!0&0#1|) #b1 #b0)))

(assert 

 (= |goto_symex::guard?0!0&0#44| 

  (ite 

   (bvslt #b00000000000000000000000000101011 |c:ps3-both-t.c@617@F@main@k?1!0&0#1|) #b1 #b0)))

(assert 

 (= |goto_symex::guard?0!0&0#45| 

  (ite 

   (bvslt #b00000000000000000000000000101100 |c:ps3-both-t.c@617@F@main@k?1!0&0#1|) #b1 #b0)))

(assert 

 (= |goto_symex::guard?0!0&0#46| 

  (ite 

   (bvslt #b00000000000000000000000000101101 |c:ps3-both-t.c@617@F@main@k?1!0&0#1|) #b1 #b0)))

(assert 

 (= |goto_symex::guard?0!0&0#47| 

  (ite 

   (bvslt #b00000000000000000000000000101110 |c:ps3-both-t.c@617@F@main@k?1!0&0#1|) #b1 #b0)))

(assert 

 (= |goto_symex::guard?0!0&0#48| 

  (ite 

   (bvslt #b00000000000000000000000000101111 |c:ps3-both-t.c@617@F@main@k?1!0&0#1|) #b1 #b0)))

(assert 

 (= |goto_symex::guard?0!0&0#49| 

  (ite 

   (bvslt #b00000000000000000000000000110000 |c:ps3-both-t.c@617@F@main@k?1!0&0#1|) #b1 #b0)))

(assert 

 (= |goto_symex::guard?0!0&0#50| 

  (ite 

   (bvslt #b00000000000000000000000000110001 |c:ps3-both-t.c@617@F@main@k?1!0&0#1|) #b1 #b0)))

(assert 

 (= |goto_symex::guard?0!0&0#51| 

  (ite 

   (bvslt #b00000000000000000000000000110010 |c:ps3-both-t.c@617@F@main@k?1!0&0#1|) #b1 #b0)))

(assert 

 (= |goto_symex::guard?0!0&0#52| 

  (ite 

   (bvslt #b00000000000000000000000000110011 |c:ps3-both-t.c@617@F@main@k?1!0&0#1|) #b1 #b0)))

(assert 

 (= |goto_symex::guard?0!0&0#53| 

  (ite 

   (bvslt #b00000000000000000000000000110100 |c:ps3-both-t.c@617@F@main@k?1!0&0#1|) #b1 #b0)))

(assert 

 (= |goto_symex::guard?0!0&0#54| 

  (ite 

   (bvslt #b00000000000000000000000000110101 |c:ps3-both-t.c@617@F@main@k?1!0&0#1|) #b1 #b0)))

(assert 

 (= |goto_symex::guard?0!0&0#55| 

  (ite 

   (bvslt #b00000000000000000000000000110110 |c:ps3-both-t.c@617@F@main@k?1!0&0#1|) #b1 #b0)))

(assert 

 (= |goto_symex::guard?0!0&0#56| 

  (ite 

   (bvslt #b00000000000000000000000000110111 |c:ps3-both-t.c@617@F@main@k?1!0&0#1|) #b1 #b0)))

(assert 

 (= |goto_symex::guard?0!0&0#57| 

  (ite 

   (bvslt #b00000000000000000000000000111000 |c:ps3-both-t.c@617@F@main@k?1!0&0#1|) #b1 #b0)))

(assert 

 (= |goto_symex::guard?0!0&0#58| 

  (ite 

   (bvslt #b00000000000000000000000000111001 |c:ps3-both-t.c@617@F@main@k?1!0&0#1|) #b1 #b0)))

(assert 

 (= |goto_symex::guard?0!0&0#59| 

  (ite 

   (bvslt #b00000000000000000000000000111010 |c:ps3-both-t.c@617@F@main@k?1!0&0#1|) #b1 #b0)))

(assert 

 (= |goto_symex::guard?0!0&0#60| 

  (ite 

   (bvslt #b00000000000000000000000000111011 |c:ps3-both-t.c@617@F@main@k?1!0&0#1|) #b1 #b0)))

(assert 

 (= |goto_symex::guard?0!0&0#61| 

  (ite 

   (bvslt #b00000000000000000000000000111100 |c:ps3-both-t.c@617@F@main@k?1!0&0#1|) #b1 #b0)))

(assert 

 (= |goto_symex::guard?0!0&0#62| 

  (ite 

   (bvslt #b00000000000000000000000000111101 |c:ps3-both-t.c@617@F@main@k?1!0&0#1|) #b1 #b0)))

(assert 

 (= |goto_symex::guard?0!0&0#63| 

  (ite 

   (bvslt #b00000000000000000000000000111110 |c:ps3-both-t.c@617@F@main@k?1!0&0#1|) #b1 #b0)))

(assert 

 (= |goto_symex::guard?0!0&0#64| 

  (ite 

   (bvslt #b00000000000000000000000000111111 |c:ps3-both-t.c@617@F@main@k?1!0&0#1|) #b1 #b0)))

(assert 

 (= |goto_symex::guard?0!0&0#65| 

  (ite 

   (bvslt #b00000000000000000000000001000000 |c:ps3-both-t.c@617@F@main@k?1!0&0#1|) #b1 #b0)))

(assert 

 (= |goto_symex::guard?0!0&0#66| 

  (ite 

   (bvslt #b00000000000000000000000001000001 |c:ps3-both-t.c@617@F@main@k?1!0&0#1|) #b1 #b0)))

(assert 

 (= |goto_symex::guard?0!0&0#67| 

  (ite 

   (bvslt #b00000000000000000000000001000010 |c:ps3-both-t.c@617@F@main@k?1!0&0#1|) #b1 #b0)))

(assert 

 (= |goto_symex::guard?0!0&0#68| 

  (ite 

   (bvslt #b00000000000000000000000001000011 |c:ps3-both-t.c@617@F@main@k?1!0&0#1|) #b1 #b0)))

(assert 

 (= |goto_symex::guard?0!0&0#69| 

  (ite 

   (bvslt #b00000000000000000000000001000100 |c:ps3-both-t.c@617@F@main@k?1!0&0#1|) #b1 #b0)))

(assert (= |execution_statet::guard_exec?0!0| #b1))

(assert (= |goto_symex::guard?0!0&0#69| #b1))

(assert (= |goto_symex::guard?0!0&0#68| #b1))

(assert (= |goto_symex::guard?0!0&0#67| #b1))

(assert (= |goto_symex::guard?0!0&0#66| #b1))

(assert (= |goto_symex::guard?0!0&0#65| #b1))

(assert (= |goto_symex::guard?0!0&0#64| #b1))

(assert (= |goto_symex::guard?0!0&0#63| #b1))

(assert (= |goto_symex::guard?0!0&0#62| #b1))

(assert (= |goto_symex::guard?0!0&0#61| #b1))

(assert (= |goto_symex::guard?0!0&0#60| #b1))

(assert (= |goto_symex::guard?0!0&0#59| #b1))

(assert (= |goto_symex::guard?0!0&0#58| #b1))

(assert (= |goto_symex::guard?0!0&0#57| #b1))

(assert (= |goto_symex::guard?0!0&0#56| #b1))

(assert (= |goto_symex::guard?0!0&0#55| #b1))

(assert (= |goto_symex::guard?0!0&0#54| #b1))

(assert (= |goto_symex::guard?0!0&0#53| #b1))

(assert (= |goto_symex::guard?0!0&0#52| #b1))

(assert (= |goto_symex::guard?0!0&0#51| #b1))

(assert (= |goto_symex::guard?0!0&0#50| #b1))

(assert (= |goto_symex::guard?0!0&0#49| #b1))

(assert (= |goto_symex::guard?0!0&0#48| #b1))

(assert (= |goto_symex::guard?0!0&0#47| #b1))

(assert (= |goto_symex::guard?0!0&0#46| #b1))

(assert (= |goto_symex::guard?0!0&0#45| #b1))

(assert (= |goto_symex::guard?0!0&0#44| #b1))

(assert (= |goto_symex::guard?0!0&0#43| #b1))

(assert (= |goto_symex::guard?0!0&0#42| #b1))

(assert (= |goto_symex::guard?0!0&0#41| #b1))

(assert (= |goto_symex::guard?0!0&0#40| #b1))

(assert (= |goto_symex::guard?0!0&0#39| #b1))

(assert (= |goto_symex::guard?0!0&0#38| #b1))

(assert (= |goto_symex::guard?0!0&0#37| #b1))

(assert (= |goto_symex::guard?0!0&0#36| #b1))

(assert (= |goto_symex::guard?0!0&0#35| #b1))

(assert (= |goto_symex::guard?0!0&0#34| #b1))

(assert (= |goto_symex::guard?0!0&0#33| #b1))

(assert (= |goto_symex::guard?0!0&0#32| #b1))

(assert (= |goto_symex::guard?0!0&0#31| #b1))

(assert (= |goto_symex::guard?0!0&0#30| #b1))

(assert (= |goto_symex::guard?0!0&0#29| #b1))

(assert (= |goto_symex::guard?0!0&0#28| #b1))

(assert (= |goto_symex::guard?0!0&0#27| #b1))

(assert (= |goto_symex::guard?0!0&0#26| #b1))

(assert (= |goto_symex::guard?0!0&0#25| #b1))

(assert (= |goto_symex::guard?0!0&0#24| #b1))

(assert (= |goto_symex::guard?0!0&0#23| #b1))

(assert (= |goto_symex::guard?0!0&0#22| #b1))

(assert (= |goto_symex::guard?0!0&0#21| #b1))

(assert (= |goto_symex::guard?0!0&0#20| #b1))

(assert (= |goto_symex::guard?0!0&0#19| #b1))

(assert (= |goto_symex::guard?0!0&0#18| #b1))

(assert (= |goto_symex::guard?0!0&0#17| #b1))

(assert (= |goto_symex::guard?0!0&0#16| #b1))

(assert (= |goto_symex::guard?0!0&0#15| #b1))

(assert (= |goto_symex::guard?0!0&0#14| #b1))

(assert (= |goto_symex::guard?0!0&0#13| #b1))

(assert (= |goto_symex::guard?0!0&0#12| #b1))

(assert (= |goto_symex::guard?0!0&0#11| #b1))

(assert (= |goto_symex::guard?0!0&0#10| #b1))

(assert (= |goto_symex::guard?0!0&0#9| #b1))

(assert (= |goto_symex::guard?0!0&0#8| #b1))

(assert (= |goto_symex::guard?0!0&0#7| #b1))

(assert (= |goto_symex::guard?0!0&0#6| #b1))

(assert (= |goto_symex::guard?0!0&0#5| #b1))

(assert (= |goto_symex::guard?0!0&0#4| #b1))

(assert (= |goto_symex::guard?0!0&0#3| #b1))

(assert (= |goto_symex::guard?0!0&0#2| #b1))

(assert (= |goto_symex::guard?0!0&0#1| #b1))

(check-sat)

(exit)
